(set-logic QF_S)
(declare-fun var0 () String)
(assert (str.in.re var0 (re.++ (re.union (re.* (str.to.re "0")) (re.* (str.to.re "11"))) (re.++ (re.union (re.+ (str.to.re "22")) (re.+ (str.to.re "333"))) (re.++ (re.union (re.union (str.to.re "44") (str.to.re "55")) (re.union (str.to.re "6") (str.to.re "777"))) (re.++ (re.+ (re.union (str.to.re "888") (str.to.re "99"))) (re.++ (re.union (re.+ (str.to.re "a")) (re.+ (str.to.re "bb"))) (re.++ (re.+ (re.+ (str.to.re "c"))) (re.++ (re.union (re.+ (str.to.re "d")) (re.+ (str.to.re "eee"))) (re.++ (re.* (re.union (str.to.re "ff") (str.to.re "g"))) (re.++ (re.* (re.+ (str.to.re "hhh"))) (re.++ (re.+ (re.+ (str.to.re "iii"))) (re.++ (re.union (re.* (str.to.re "jjj")) (re.* (str.to.re "kk"))) (re.++ (re.+ (re.+ (str.to.re "lll"))) (re.++ (re.* (re.+ (str.to.re "m"))) (re.++ (re.* (re.* (str.to.re "nnn"))) (re.++ (re.+ (re.* (str.to.re "ooo"))) (re.++ (re.+ (re.union (str.to.re "ppp") (str.to.re "q"))) (re.++ (re.+ (re.* (str.to.re "rrr"))) (re.++ (re.+ (re.* (str.to.re "sss"))) (re.++ (re.* (re.+ (str.to.re "tt"))) (re.++ (re.* (re.* (str.to.re "uu"))) (re.++ (re.union (re.* (str.to.re "vvv")) (re.* (str.to.re "ww"))) (re.++ (re.+ (re.union (str.to.re "xx") (str.to.re "y"))) (re.++ (re.union (re.+ (str.to.re "zz")) (re.+ (str.to.re "AAA"))) (re.++ (re.union (re.+ (str.to.re "B")) (re.+ (str.to.re "CCC"))) (re.++ (re.union (re.* (str.to.re "DDD")) (re.* (str.to.re "EEE"))) (re.++ (re.* (re.union (str.to.re "FFF") (str.to.re "G"))) (re.++ (re.* (re.+ (str.to.re "H"))) (re.++ (re.+ (re.+ (str.to.re "III"))) (re.++ (re.+ (re.+ (str.to.re "J"))) (re.++ (re.union (re.union (str.to.re "KKK") (str.to.re "LLL")) (re.union (str.to.re "MM") (str.to.re "N"))) (re.++ (re.union (re.* (str.to.re "OO")) (re.* (str.to.re "P"))) (re.++ (re.* (re.+ (str.to.re "QQ"))) (re.++ (re.* (re.+ (str.to.re "R"))) (re.++ (re.+ (re.union (str.to.re "SSS") (str.to.re "TTT"))) (re.++ (re.+ (re.+ (str.to.re "U"))) (re.++ (re.+ (re.+ (str.to.re "V"))) (re.++ (re.+ (re.union (str.to.re "WWW") (str.to.re "X"))) (re.++ (re.+ (re.union (str.to.re "YY") (str.to.re "ZZ"))) (re.++ (re.union (re.+ (str.to.re "!!!")) (re.+ (str.to.re """"""))) (re.++ (re.* (re.+ (str.to.re "###"))) (re.++ (re.union (re.union (str.to.re "$$") (str.to.re "%%%")) (re.union (str.to.re "&") (str.to.re "'''"))) (re.++ (re.+ (re.union (str.to.re "(((") (str.to.re ")"))) (re.++ (re.+ (re.union (str.to.re "***") (str.to.re "+++"))) (re.++ (re.union (re.+ (str.to.re ",")) (re.+ (str.to.re "---"))) (re.++ (re.union (re.union (str.to.re "...") (str.to.re "/")) (re.union (str.to.re ":") (str.to.re ";;"))) (re.++ (re.union (re.union (str.to.re "<<") (str.to.re "===")) (re.union (str.to.re ">>>") (str.to.re "??"))) (re.++ (re.union (re.union (str.to.re "@@@") (str.to.re "[[")) (re.union (str.to.re "\\") (str.to.re "]"))) (re.++ (re.+ (re.union (str.to.re "^^^") (str.to.re "__"))) (re.++ (re.+ (re.+ (str.to.re "```"))) (re.++ (re.union (re.+ (str.to.re "{")) (re.+ (str.to.re "||"))) (re.++ (re.* (re.union (str.to.re "}}}") (str.to.re "~~~"))) (re.++ (re.* (re.* (str.to.re "00"))) (re.++ (re.* (re.+ (str.to.re "111"))) (re.++ (re.* (re.union (str.to.re "222") (str.to.re "333"))) (re.* (re.* (str.to.re "44")))))))))))))))))))))))))))))))))))))))))))))))))))))))))))
(check-sat)